
Gurobi 9.0.3 (win64, Java) logging started Mon Mar  1 01:17:51 2021


--------------------------------------------
Warning: your license will expire in 3 days
--------------------------------------------

Academic license - for non-commercial use only
